projected/problems_b25_r0_d7_m100_s666/_DIMACS/b25_d7_r0_s666_026.cnf
p cnf 246 407 25
c p show 1 2 3 4 5 6 7 8 9 10 11 12 13 14 15 16 17 18 19 20 21 22 23 24 25
-28 13 -12 0
-29 -4 -11 0
-30 11 4 0
-31 30 0
-31 29 0
-32 31 28 0
-33 -19 -14 0
-34 8 -18 0
-35 34 33 0
-36 35 32 0
-37 -22 2 0
-38 16 0
-38 -1 0
-39 38 0
-39 37 0
-40 12 4 0
-41 23 0
-41 7 0
-42 41 0
-42 40 0
-43 -23 -7 0
-44 -12 0
-44 -4 0
-45 44 0
-45 43 0
-46 45 42 0
-47 46 0
-47 39 0
-48 47 0
-48 36 0
-49 -4 14 0
-50 10 0
-50 -13 0
-51 50 0
-51 49 0
-52 20 15 0
-53 -15 -20 0
-54 53 0
-54 52 0
-55 -4 0
-55 16 0
-56 55 54 0
-57 56 0
-57 51 0
-58 5 11 0
-59 6 -5 0
-60 59 0
-60 58 0
-61 -6 0
-61 5 0
-62 -5 0
-62 -11 0
-63 62 0
-63 61 0
-64 63 60 0
-65 -5 0
-65 -12 0
-66 -1 0
-66 -24 0
-67 66 65 0
-68 67 64 0
-69 5 12 0
-70 1 24 0
-71 70 0
-71 69 0
-72 61 62 0
-73 58 59 0
-74 73 0
-74 72 0
-75 74 71 0
-76 75 0
-76 68 0
-77 76 0
-77 57 0
-78 77 48 0
-79 -21 5 0
-80 -16 11 0
-81 80 0
-81 79 0
-82 9 0
-82 11 0
-83 14 10 0
-84 -10 -14 0
-85 84 0
-85 83 0
-86 85 0
-86 82 0
-87 86 81 0
-88 6 0
-88 -17 0
-89 -23 3 0
-90 -3 23 0
-91 90 0
-91 89 0
-92 91 88 0
-93 9 8 0
-94 -21 11 0
-95 94 0
-95 93 0
-96 95 0
-96 92 0
-97 96 87 0
-98 -14 -21 0
-99 -4 0
-99 -20 0
-100 20 0
-100 4 0
-101 100 99 0
-102 101 0
-102 98 0
-103 -14 -6 0
-104 1 0
-104 -18 0
-105 104 0
-105 103 0
-106 105 0
-106 102 0
-107 14 0
-107 6 0
-108 -1 18 0
-109 108 107 0
-110 14 0
-110 21 0
-111 4 20 0
-112 -20 -4 0
-113 112 0
-113 111 0
-114 113 110 0
-115 114 0
-115 109 0
-116 115 106 0
-117 -13 0
-117 25 0
-118 -4 5 0
-119 118 117 0
-120 4 0
-120 -5 0
-121 13 -25 0
-122 121 120 0
-123 122 0
-123 119 0
-124 14 0
-124 -2 0
-125 -25 0
-125 -15 0
-126 125 0
-126 124 0
-127 126 123 0
-128 127 116 0
-129 128 0
-129 97 0
-130 129 78 0
-131 -5 7 0
-132 3 0
-132 -17 0
-133 132 0
-133 131 0
-134 -3 17 0
-135 5 0
-135 -7 0
-136 135 0
-136 134 0
-137 136 133 0
-138 9 0
-138 7 0
-139 8 18 0
-140 139 0
-140 138 0
-141 140 137 0
-142 14 -16 0
-143 -15 0
-143 -6 0
-144 143 142 0
-145 -1 0
-145 5 0
-146 -5 0
-146 1 0
-147 146 145 0
-148 -23 16 0
-149 -16 23 0
-150 149 0
-150 148 0
-151 150 0
-151 147 0
-152 151 144 0
-153 152 141 0
-154 -23 0
-154 -19 0
-155 -3 -21 0
-156 155 0
-156 154 0
-157 21 -9 0
-158 -12 0
-158 -1 0
-159 158 157 0
-160 159 156 0
-161 -21 -4 0
-162 -1 -25 0
-163 162 0
-163 161 0
-164 -24 0
-164 -2 0
-165 -8 0
-165 -13 0
-166 165 164 0
-167 166 163 0
-168 167 160 0
-169 168 0
-169 153 0
-170 23 19 0
-171 3 0
-171 21 0
-172 171 170 0
-173 -21 0
-173 9 0
-174 12 1 0
-175 174 0
-175 173 0
-176 175 0
-176 172 0
-177 21 0
-177 4 0
-178 1 0
-178 25 0
-179 178 177 0
-180 24 2 0
-181 8 13 0
-182 181 0
-182 180 0
-183 182 0
-183 179 0
-184 183 0
-184 176 0
-185 134 135 0
-186 131 132 0
-187 186 0
-187 185 0
-188 -9 -7 0
-189 -8 0
-189 -18 0
-190 189 188 0
-191 190 0
-191 187 0
-192 -14 0
-192 16 0
-193 15 6 0
-194 193 0
-194 192 0
-195 1 -5 0
-196 5 -1 0
-197 196 0
-197 195 0
-198 23 0
-198 -16 0
-199 16 0
-199 -23 0
-200 199 198 0
-201 200 197 0
-202 201 0
-202 194 0
-203 202 0
-203 191 0
-204 203 0
-204 184 0
-205 204 169 0
-206 23 0
-206 -20 0
-207 15 0
-207 11 0
-208 207 206 0
-209 -25 0
-209 3 0
-210 24 0
-211 210 209 0
-212 -24 0
-213 25 -3 0
-214 213 212 0
-215 214 0
-215 211 0
-216 215 0
-216 208 0
-217 19 0
-217 5 0
-218 5 4 0
-219 -4 -5 0
-220 219 0
-220 218 0
-221 220 0
-221 217 0
-222 22 -3 0
-224 -7 15 0
-225 -15 7 0
-226 225 0
-226 224 0
-227 226 222 0
-228 227 221 0
-230 228 216 0
-231 -19 9 0
-232 209 231 0
-233 4 -22 0
-234 6 0
-234 -20 0
-236 234 0
-236 233 0
-237 236 0
-237 232 0
-238 2 0
-238 -9 0
-239 19 0
-239 -21 0
-240 239 238 0
-241 -19 21 0
-242 -2 9 0
-243 242 241 0
-244 243 0
-244 240 0
-245 -18 0
-245 -19 0
-246 -1 25 0
-26 246 245 0
-27 26 244 0
-223 27 237 0
-229 223 0
-229 230 0
-235 229 0
-235 205 0
235 0
130 0
-41 -43 0
-44 -40 0
-69 -65 0
-65 -69 0
-70 -66 0
-66 -70 0
-67 -71 0
-71 -67 0
-61 -59 0
-59 -61 0
-62 -58 0
-74 -64 0
-64 -74 0
-103 -107 0
-107 -103 0
-108 -104 0
-109 -105 0
-105 -109 0
-110 -98 0
-98 -110 0
-113 -101 0
-101 -113 0
-102 -114 0
-114 -102 0
-118 -120 0
-120 -118 0
-117 -121 0
-154 -170 0
-170 -154 0
-155 -171 0
-171 -155 0
-172 -156 0
-157 -173 0
-173 -157 0
-174 -158 0
-175 -159 0
-176 -160 0
-160 -176 0
-161 -177 0
-162 -178 0
-163 -179 0
-179 -163 0
-180 -164 0
-164 -180 0
-165 -181 0
-166 -182 0
-182 -166 0
-183 -167 0
-167 -183 0
-168 -184 0
-132 -134 0
-131 -135 0
-135 -131 0
-187 -137 0
-188 -138 0
-138 -188 0
-139 -189 0
-140 -190 0
-190 -140 0
-191 -141 0
-192 -142 0
-142 -192 0
-193 -143 0
-143 -193 0
-144 -194 0
-197 -147 0
-147 -197 0
-150 -200 0
-151 -201 0
-152 -202 0
-202 -152 0
-203 -153 0
-210 -212 0
-212 -210 0
-209 -213 0
-239 -241 0
-241 -239 0
-242 -238 0
-238 -242 0
