projected/problems_b25_r0_d7_m100_s666/b25_d7_r0_s666_026.smt2
(set-logic QF_UF)
(declare-fun A0 () Bool)
(declare-fun A1 () Bool)
(declare-fun A2 () Bool)
(declare-fun A3 () Bool)
(declare-fun A4 () Bool)
(declare-fun A5 () Bool)
(declare-fun A6 () Bool)
(declare-fun A7 () Bool)
(declare-fun A8 () Bool)
(declare-fun A9 () Bool)
(declare-fun A10 () Bool)
(declare-fun A11 () Bool)
(declare-fun A12 () Bool)
(declare-fun A13 () Bool)
(declare-fun A14 () Bool)
(declare-fun A15 () Bool)
(declare-fun A16 () Bool)
(declare-fun A17 () Bool)
(declare-fun A18 () Bool)
(declare-fun A19 () Bool)
(declare-fun A20 () Bool)
(declare-fun A21 () Bool)
(declare-fun A22 () Bool)
(declare-fun A23 () Bool)
(declare-fun A24 () Bool)
(assert (let ((.def_0 (not A12))) (let ((.def_1 (and .def_0 A11))) (let ((.def_2 (not A10))) (let ((.def_3 (= .def_2 A3))) (let ((.def_4 (not .def_3))) (let ((.def_5 (and .def_4 .def_1))) (let ((.def_6 (not .def_5))) (let ((.def_7 (and A18 A13))) (let ((.def_8 (not A7))) (let ((.def_9 (and .def_8 A17))) (let ((.def_10 (and .def_9 .def_7))) (let ((.def_11 (not .def_10))) (let ((.def_12 (or .def_11 .def_6))) (let ((.def_13 (not .def_12))) (let ((.def_14 (not A1))) (let ((.def_15 (and A21 .def_14))) (let ((.def_16 (not .def_15))) (let ((.def_17 (not A15))) (let ((.def_18 (or .def_17 A0))) (let ((.def_19 (not .def_18))) (let ((.def_20 (and .def_19 .def_16))) (let ((.def_21 (not .def_20))) (let ((.def_22 (and A22 A6))) (let ((.def_23 (not A3))) (let ((.def_24 (not A11))) (let ((.def_25 (and .def_24 .def_23))) (let ((.def_26 (= .def_25 .def_22))) (let ((.def_27 (or .def_26 .def_21))) (let ((.def_28 (or .def_27 .def_13))) (let ((.def_29 (not .def_28))) (let ((.def_30 (not A13))) (let ((.def_31 (and A3 .def_30))) (let ((.def_32 (not A9))) (let ((.def_33 (or .def_32 A12))) (let ((.def_34 (or .def_33 .def_31))) (let ((.def_35 (not .def_34))) (let ((.def_36 (not A19))) (let ((.def_37 (= A14 .def_36))) (let ((.def_38 (not .def_37))) (let ((.def_39 (and .def_23 A15))) (let ((.def_40 (not .def_39))) (let ((.def_41 (and .def_40 .def_38))) (let ((.def_42 (not .def_41))) (let ((.def_43 (and .def_42 .def_35))) (let ((.def_44 (not .def_43))) (let ((.def_45 (or A4 A11))) (let ((.def_46 (not .def_45))) (let ((.def_47 (or A0 A23))) (let ((.def_48 (not .def_47))) (let ((.def_49 (or .def_48 .def_46))) (let ((.def_50 (not .def_49))) (let ((.def_51 (not A5))) (let ((.def_52 (and .def_51 A4))) (let ((.def_53 (not .def_52))) (let ((.def_54 (not A4))) (let ((.def_55 (and .def_54 .def_2))) (let ((.def_56 (= .def_55 .def_53))) (let ((.def_57 (not .def_56))) (let ((.def_58 (= .def_57 .def_50))) (let ((.def_59 (not .def_58))) (let ((.def_60 (or .def_59 .def_44))) (let ((.def_61 (not .def_60))) (let ((.def_62 (or .def_61 .def_29))) (let ((.def_63 (not .def_62))) (let ((.def_64 (not A20))) (let ((.def_65 (or .def_64 A4))) (let ((.def_66 (not .def_65))) (let ((.def_67 (and A15 .def_2))) (let ((.def_68 (or .def_67 .def_66))) (let ((.def_69 (not .def_68))) (let ((.def_70 (not A8))) (let ((.def_71 (or .def_70 .def_2))) (let ((.def_72 (= A9 .def_30))) (let ((.def_73 (not .def_72))) (let ((.def_74 (or .def_73 .def_71))) (let ((.def_75 (not .def_74))) (let ((.def_76 (or .def_75 .def_69))) (let ((.def_77 (not .def_76))) (let ((.def_78 (or .def_51 A16))) (let ((.def_79 (= A2 A22))) (let ((.def_80 (not .def_79))) (let ((.def_81 (and .def_80 .def_78))) (let ((.def_82 (or A8 A7))) (let ((.def_83 (and A20 .def_2))) (let ((.def_84 (not .def_83))) (let ((.def_85 (and .def_84 .def_82))) (let ((.def_86 (not .def_85))) (let ((.def_87 (or .def_86 .def_81))) (let ((.def_88 (and .def_87 .def_77))) (let ((.def_89 (or .def_30 .def_51))) (let ((.def_90 (not .def_89))) (let ((.def_91 (not A0))) (let ((.def_92 (or .def_91 A17))) (let ((.def_93 (or .def_92 .def_90))) (let ((.def_94 (not .def_93))) (let ((.def_95 (and A13 A20))) (let ((.def_96 (not .def_95))) (let ((.def_97 (= A19 .def_23))) (let ((.def_98 (not .def_97))) (let ((.def_99 (and .def_98 .def_96))) (let ((.def_100 (not .def_99))) (let ((.def_101 (= .def_100 .def_94))) (let ((.def_102 (not .def_101))) (let ((.def_103 (or .def_23 A4))) (let ((.def_104 (not .def_103))) (let ((.def_105 (and .def_0 A24))) (let ((.def_106 (= .def_105 .def_104))) (let ((.def_107 (not .def_106))) (let ((.def_108 (or .def_30 A1))) (let ((.def_109 (not .def_108))) (let ((.def_110 (or A24 A14))) (let ((.def_111 (not .def_110))) (let ((.def_112 (and .def_111 .def_109))) (let ((.def_113 (not .def_112))) (let ((.def_114 (and .def_113 .def_107))) (let ((.def_115 (not .def_114))) (let ((.def_116 (or .def_115 .def_102))) (let ((.def_117 (not .def_116))) (let ((.def_118 (or .def_117 .def_88))) (let ((.def_119 (and .def_118 .def_63))) (let ((.def_120 (not .def_119))) (let ((.def_121 (not A18))) (let ((.def_122 (not A22))) (let ((.def_123 (and .def_122 .def_121))) (let ((.def_124 (not .def_123))) (let ((.def_125 (not A2))) (let ((.def_126 (or .def_125 .def_64))) (let ((.def_127 (not .def_126))) (let ((.def_128 (or .def_127 .def_124))) (let ((.def_129 (or A20 .def_70))) (let ((.def_130 (not .def_129))) (let ((.def_131 (or A11 A0))) (let ((.def_132 (and .def_131 .def_130))) (let ((.def_133 (and .def_132 .def_128))) (let ((.def_134 (not .def_133))) (let ((.def_135 (or .def_64 .def_23))) (let ((.def_136 (not A24))) (let ((.def_137 (or .def_91 .def_136))) (let ((.def_138 (and .def_137 .def_135))) (let ((.def_139 (not .def_138))) (let ((.def_140 (or A23 A1))) (let ((.def_141 (not .def_140))) (let ((.def_142 (and .def_8 .def_0))) (let ((.def_143 (or .def_142 .def_141))) (let ((.def_144 (not .def_143))) (let ((.def_145 (and .def_144 .def_139))) (let ((.def_146 (not .def_145))) (let ((.def_147 (or .def_146 .def_134))) (let ((.def_148 (not A16))) (let ((.def_149 (and A2 .def_148))) (let ((.def_150 (or .def_54 A6))) (let ((.def_151 (not .def_150))) (let ((.def_152 (= .def_151 .def_149))) (let ((.def_153 (not A6))) (let ((.def_154 (or .def_70 .def_153))) (let ((.def_155 (not .def_154))) (let ((.def_156 (or A7 A17))) (let ((.def_157 (and .def_156 .def_155))) (let ((.def_158 (not .def_157))) (let ((.def_159 (and .def_158 .def_152))) (let ((.def_160 (and .def_30 A15))) (let ((.def_161 (not .def_160))) (let ((.def_162 (or A14 A5))) (let ((.def_163 (not .def_162))) (let ((.def_164 (or .def_163 .def_161))) (let ((.def_165 (= .def_54 .def_91))) (let ((.def_166 (not .def_165))) (let ((.def_167 (= A15 A22))) (let ((.def_168 (and .def_167 .def_166))) (let ((.def_169 (or .def_168 .def_164))) (let ((.def_170 (not .def_169))) (let ((.def_171 (and .def_170 .def_159))) (let ((.def_172 (= .def_171 .def_147))) (let ((.def_173 (not .def_172))) (let ((.def_174 (or .def_122 A19))) (let ((.def_175 (and A14 A10))) (let ((.def_176 (not .def_175))) (let ((.def_177 (and .def_176 .def_174))) (let ((.def_178 (not .def_177))) (let ((.def_179 (and A23 A23))) (let ((.def_180 (not .def_179))) (let ((.def_181 (and .def_136 A2))) (let ((.def_182 (= .def_181 .def_180))) (let ((.def_183 (and .def_182 .def_178))) (let ((.def_184 (not .def_183))) (let ((.def_185 (or .def_121 .def_54))) (let ((.def_186 (not .def_185))) (let ((.def_187 (= A3 .def_54))) (let ((.def_188 (and .def_187 .def_186))) (let ((.def_189 (not A21))) (let ((.def_190 (and .def_189 A2))) (let ((.def_191 (not .def_190))) (let ((.def_192 (= A14 A6))) (let ((.def_193 (or .def_192 .def_191))) (let ((.def_194 (or .def_193 .def_188))) (let ((.def_195 (not .def_194))) (let ((.def_196 (and .def_195 .def_184))) (let ((.def_197 (or .def_121 A8))) (let ((.def_198 (or A24 .def_125))) (let ((.def_199 (not .def_198))) (let ((.def_200 (or .def_199 .def_197))) (let ((.def_201 (and .def_23 A21))) (let ((.def_202 (or .def_51 A19))) (let ((.def_203 (or .def_202 .def_201))) (let ((.def_204 (not .def_203))) (let ((.def_205 (and .def_204 .def_200))) (let ((.def_206 (not .def_205))) (let ((.def_207 (and A18 .def_64))) (let ((.def_208 (not .def_207))) (let ((.def_209 (or .def_14 A8))) (let ((.def_210 (not .def_209))) (let ((.def_211 (= .def_210 .def_208))) (let ((.def_212 (not .def_211))) (let ((.def_213 (not A17))) (let ((.def_214 (and .def_213 .def_121))) (let ((.def_215 (or .def_91 A24))) (let ((.def_216 (or .def_215 .def_214))) (let ((.def_217 (not .def_216))) (let ((.def_218 (and .def_217 .def_212))) (let ((.def_219 (and .def_218 .def_206))) (let ((.def_220 (or .def_219 .def_196))) (let ((.def_221 (not .def_220))) (let ((.def_222 (and .def_221 .def_173))) (let ((.def_223 (and .def_222 .def_120))) .def_223)))))))))))))))))))))))))))))))))))))))))))))))))))))))))))))))))))))))))))))))))))))))))))))))))))))))))))))))))))))))))))))))))))))))))))))))))))))))))))))))))))))))))))))))))))))))))))))))))))))))))))))))))))))))))))))))))
(check-sat)
